g3 1 1 0	# problem expquad
 120 0 1 0 0	# vars, constraints, objectives, ranges, eqns
 0 1	# nonlinear constraints, objectives
 0 0	# network constraints: nonlinear, linear
 0 120 0	# nonlinear vars in constraints, objectives, both
 0 0 0 1	# linear network variables; functions; arith, flags
 0 0 0 0 0	# discrete variables: binary, integer, nonlinear (b,c,o)
 0 120	# nonzeros in Jacobian, gradients
 0 0	# max name lengths: constraints, variables
 0 0 0 0 0	# common exprs: b,c,o,c1,o1
b
0 0 10
0 0 10
0 0 10
0 0 10
0 0 10
0 0 10
0 0 10
0 0 10
0 0 10
0 0 10
3
3
3
3
3
3
3
3
3
3
3
3
3
3
3
3
3
3
3
3
3
3
3
3
3
3
3
3
3
3
3
3
3
3
3
3
3
3
3
3
3
3
3
3
3
3
3
3
3
3
3
3
3
3
3
3
3
3
3
3
3
3
3
3
3
3
3
3
3
3
3
3
3
3
3
3
3
3
3
3
3
3
3
3
3
3
3
3
3
3
3
3
3
3
3
3
3
3
3
3
3
3
3
3
3
3
3
3
3
3
x120
0 0
1 0
2 0
3 0
4 0
5 0
6 0
7 0
8 0
9 0
10 0
11 0
12 0
13 0
14 0
15 0
16 0
17 0
18 0
19 0
20 0
21 0
22 0
23 0
24 0
25 0
26 0
27 0
28 0
29 0
30 0
31 0
32 0
33 0
34 0
35 0
36 0
37 0
38 0
39 0
40 0
41 0
42 0
43 0
44 0
45 0
46 0
47 0
48 0
49 0
50 0
51 0
52 0
53 0
54 0
55 0
56 0
57 0
58 0
59 0
60 0
61 0
62 0
63 0
64 0
65 0
66 0
67 0
68 0
69 0
70 0
71 0
72 0
73 0
74 0
75 0
76 0
77 0
78 0
79 0
80 0
81 0
82 0
83 0
84 0
85 0
86 0
87 0
88 0
89 0
90 0
91 0
92 0
93 0
94 0
95 0
96 0
97 0
98 0
99 0
100 0
101 0
102 0
103 0
104 0
105 0
106 0
107 0
108 0
109 0
110 0
111 0
112 0
113 0
114 0
115 0
116 0
117 0
118 0
119 0
O0 0
o54
337
o44
o2
v0
v1
o44
o2
o2
n2
v1
v2
o44
o2
o2
n3.0000000000000004
v2
v3
o44
o2
o2
n4
v3
v4
o44
o2
o2
n5
v4
v5
o44
o2
o2
n6.000000000000001
v5
v6
o44
o2
o2
n7.000000000000001
v6
v7
o44
o2
o2
n8
v7
v8
o44
o2
o2
n9
v8
v9
o44
o2
o2
n10
v9
v10
o2
o2
n4
v10
v10
o2
o2
n2
v119
v119
o2
v10
v119
o2
o2
n4
v11
v11
o2
o2
n2
v119
v119
o2
v11
v119
o2
o2
n4
v12
v12
o2
o2
n2
v119
v119
o2
v12
v119
o2
o2
n4
v13
v13
o2
o2
n2
v119
v119
o2
v13
v119
o2
o2
n4
v14
v14
o2
o2
n2
v119
v119
o2
v14
v119
o2
o2
n4
v15
v15
o2
o2
n2
v119
v119
o2
v15
v119
o2
o2
n4
v16
v16
o2
o2
n2
v119
v119
o2
v16
v119
o2
o2
n4
v17
v17
o2
o2
n2
v119
v119
o2
v17
v119
o2
o2
n4
v18
v18
o2
o2
n2
v119
v119
o2
v18
v119
o2
o2
n4
v19
v19
o2
o2
n2
v119
v119
o2
v19
v119
o2
o2
n4
v20
v20
o2
o2
n2
v119
v119
o2
v20
v119
o2
o2
n4
v21
v21
o2
o2
n2
v119
v119
o2
v21
v119
o2
o2
n4
v22
v22
o2
o2
n2
v119
v119
o2
v22
v119
o2
o2
n4
v23
v23
o2
o2
n2
v119
v119
o2
v23
v119
o2
o2
n4
v24
v24
o2
o2
n2
v119
v119
o2
v24
v119
o2
o2
n4
v25
v25
o2
o2
n2
v119
v119
o2
v25
v119
o2
o2
n4
v26
v26
o2
o2
n2
v119
v119
o2
v26
v119
o2
o2
n4
v27
v27
o2
o2
n2
v119
v119
o2
v27
v119
o2
o2
n4
v28
v28
o2
o2
n2
v119
v119
o2
v28
v119
o2
o2
n4
v29
v29
o2
o2
n2
v119
v119
o2
v29
v119
o2
o2
n4
v30
v30
o2
o2
n2
v119
v119
o2
v30
v119
o2
o2
n4
v31
v31
o2
o2
n2
v119
v119
o2
v31
v119
o2
o2
n4
v32
v32
o2
o2
n2
v119
v119
o2
v32
v119
o2
o2
n4
v33
v33
o2
o2
n2
v119
v119
o2
v33
v119
o2
o2
n4
v34
v34
o2
o2
n2
v119
v119
o2
v34
v119
o2
o2
n4
v35
v35
o2
o2
n2
v119
v119
o2
v35
v119
o2
o2
n4
v36
v36
o2
o2
n2
v119
v119
o2
v36
v119
o2
o2
n4
v37
v37
o2
o2
n2
v119
v119
o2
v37
v119
o2
o2
n4
v38
v38
o2
o2
n2
v119
v119
o2
v38
v119
o2
o2
n4
v39
v39
o2
o2
n2
v119
v119
o2
v39
v119
o2
o2
n4
v40
v40
o2
o2
n2
v119
v119
o2
v40
v119
o2
o2
n4
v41
v41
o2
o2
n2
v119
v119
o2
v41
v119
o2
o2
n4
v42
v42
o2
o2
n2
v119
v119
o2
v42
v119
o2
o2
n4
v43
v43
o2
o2
n2
v119
v119
o2
v43
v119
o2
o2
n4
v44
v44
o2
o2
n2
v119
v119
o2
v44
v119
o2
o2
n4
v45
v45
o2
o2
n2
v119
v119
o2
v45
v119
o2
o2
n4
v46
v46
o2
o2
n2
v119
v119
o2
v46
v119
o2
o2
n4
v47
v47
o2
o2
n2
v119
v119
o2
v47
v119
o2
o2
n4
v48
v48
o2
o2
n2
v119
v119
o2
v48
v119
o2
o2
n4
v49
v49
o2
o2
n2
v119
v119
o2
v49
v119
o2
o2
n4
v50
v50
o2
o2
n2
v119
v119
o2
v50
v119
o2
o2
n4
v51
v51
o2
o2
n2
v119
v119
o2
v51
v119
o2
o2
n4
v52
v52
o2
o2
n2
v119
v119
o2
v52
v119
o2
o2
n4
v53
v53
o2
o2
n2
v119
v119
o2
v53
v119
o2
o2
n4
v54
v54
o2
o2
n2
v119
v119
o2
v54
v119
o2
o2
n4
v55
v55
o2
o2
n2
v119
v119
o2
v55
v119
o2
o2
n4
v56
v56
o2
o2
n2
v119
v119
o2
v56
v119
o2
o2
n4
v57
v57
o2
o2
n2
v119
v119
o2
v57
v119
o2
o2
n4
v58
v58
o2
o2
n2
v119
v119
o2
v58
v119
o2
o2
n4
v59
v59
o2
o2
n2
v119
v119
o2
v59
v119
o2
o2
n4
v60
v60
o2
o2
n2
v119
v119
o2
v60
v119
o2
o2
n4
v61
v61
o2
o2
n2
v119
v119
o2
v61
v119
o2
o2
n4
v62
v62
o2
o2
n2
v119
v119
o2
v62
v119
o2
o2
n4
v63
v63
o2
o2
n2
v119
v119
o2
v63
v119
o2
o2
n4
v64
v64
o2
o2
n2
v119
v119
o2
v64
v119
o2
o2
n4
v65
v65
o2
o2
n2
v119
v119
o2
v65
v119
o2
o2
n4
v66
v66
o2
o2
n2
v119
v119
o2
v66
v119
o2
o2
n4
v67
v67
o2
o2
n2
v119
v119
o2
v67
v119
o2
o2
n4
v68
v68
o2
o2
n2
v119
v119
o2
v68
v119
o2
o2
n4
v69
v69
o2
o2
n2
v119
v119
o2
v69
v119
o2
o2
n4
v70
v70
o2
o2
n2
v119
v119
o2
v70
v119
o2
o2
n4
v71
v71
o2
o2
n2
v119
v119
o2
v71
v119
o2
o2
n4
v72
v72
o2
o2
n2
v119
v119
o2
v72
v119
o2
o2
n4
v73
v73
o2
o2
n2
v119
v119
o2
v73
v119
o2
o2
n4
v74
v74
o2
o2
n2
v119
v119
o2
v74
v119
o2
o2
n4
v75
v75
o2
o2
n2
v119
v119
o2
v75
v119
o2
o2
n4
v76
v76
o2
o2
n2
v119
v119
o2
v76
v119
o2
o2
n4
v77
v77
o2
o2
n2
v119
v119
o2
v77
v119
o2
o2
n4
v78
v78
o2
o2
n2
v119
v119
o2
v78
v119
o2
o2
n4
v79
v79
o2
o2
n2
v119
v119
o2
v79
v119
o2
o2
n4
v80
v80
o2
o2
n2
v119
v119
o2
v80
v119
o2
o2
n4
v81
v81
o2
o2
n2
v119
v119
o2
v81
v119
o2
o2
n4
v82
v82
o2
o2
n2
v119
v119
o2
v82
v119
o2
o2
n4
v83
v83
o2
o2
n2
v119
v119
o2
v83
v119
o2
o2
n4
v84
v84
o2
o2
n2
v119
v119
o2
v84
v119
o2
o2
n4
v85
v85
o2
o2
n2
v119
v119
o2
v85
v119
o2
o2
n4
v86
v86
o2
o2
n2
v119
v119
o2
v86
v119
o2
o2
n4
v87
v87
o2
o2
n2
v119
v119
o2
v87
v119
o2
o2
n4
v88
v88
o2
o2
n2
v119
v119
o2
v88
v119
o2
o2
n4
v89
v89
o2
o2
n2
v119
v119
o2
v89
v119
o2
o2
n4
v90
v90
o2
o2
n2
v119
v119
o2
v90
v119
o2
o2
n4
v91
v91
o2
o2
n2
v119
v119
o2
v91
v119
o2
o2
n4
v92
v92
o2
o2
n2
v119
v119
o2
v92
v119
o2
o2
n4
v93
v93
o2
o2
n2
v119
v119
o2
v93
v119
o2
o2
n4
v94
v94
o2
o2
n2
v119
v119
o2
v94
v119
o2
o2
n4
v95
v95
o2
o2
n2
v119
v119
o2
v95
v119
o2
o2
n4
v96
v96
o2
o2
n2
v119
v119
o2
v96
v119
o2
o2
n4
v97
v97
o2
o2
n2
v119
v119
o2
v97
v119
o2
o2
n4
v98
v98
o2
o2
n2
v119
v119
o2
v98
v119
o2
o2
n4
v99
v99
o2
o2
n2
v119
v119
o2
v99
v119
o2
o2
n4
v100
v100
o2
o2
n2
v119
v119
o2
v100
v119
o2
o2
n4
v101
v101
o2
o2
n2
v119
v119
o2
v101
v119
o2
o2
n4
v102
v102
o2
o2
n2
v119
v119
o2
v102
v119
o2
o2
n4
v103
v103
o2
o2
n2
v119
v119
o2
v103
v119
o2
o2
n4
v104
v104
o2
o2
n2
v119
v119
o2
v104
v119
o2
o2
n4
v105
v105
o2
o2
n2
v119
v119
o2
v105
v119
o2
o2
n4
v106
v106
o2
o2
n2
v119
v119
o2
v106
v119
o2
o2
n4
v107
v107
o2
o2
n2
v119
v119
o2
v107
v119
o2
o2
n4
v108
v108
o2
o2
n2
v119
v119
o2
v108
v119
o2
o2
n4
v109
v109
o2
o2
n2
v119
v119
o2
v109
v119
o2
o2
n4
v110
v110
o2
o2
n2
v119
v119
o2
v110
v119
o2
o2
n4
v111
v111
o2
o2
n2
v119
v119
o2
v111
v119
o2
o2
n4
v112
v112
o2
o2
n2
v119
v119
o2
v112
v119
o2
o2
n4
v113
v113
o2
o2
n2
v119
v119
o2
v113
v119
o2
o2
n4
v114
v114
o2
o2
n2
v119
v119
o2
v114
v119
o2
o2
n4
v115
v115
o2
o2
n2
v119
v119
o2
v115
v119
o2
o2
n4
v116
v116
o2
o2
n2
v119
v119
o2
v116
v119
o2
o2
n4
v117
v117
o2
o2
n2
v119
v119
o2
v117
v119
o2
o2
n4
v118
v118
o2
o2
n2
v119
v119
o2
v118
v119
k119
0
0
0
0
0
0
0
0
0
0
0
0
0
0
0
0
0
0
0
0
0
0
0
0
0
0
0
0
0
0
0
0
0
0
0
0
0
0
0
0
0
0
0
0
0
0
0
0
0
0
0
0
0
0
0
0
0
0
0
0
0
0
0
0
0
0
0
0
0
0
0
0
0
0
0
0
0
0
0
0
0
0
0
0
0
0
0
0
0
0
0
0
0
0
0
0
0
0
0
0
0
0
0
0
0
0
0
0
0
0
0
0
0
0
0
0
0
0
0
G0 120
0 -10
1 -20
2 -30
3 -40
4 -50
5 -60
6 -70
7 -80
8 -90
9 -100
10 -110
11 -120
12 -130
13 -140
14 -150
15 -160
16 -170
17 -180
18 -190
19 -200
20 -210
21 -220
22 -230
23 -240
24 -250
25 -260
26 -270
27 -280
28 -290
29 -300
30 -310
31 -320
32 -330
33 -340
34 -350
35 -360
36 -370
37 -380
38 -390
39 -400
40 -410
41 -420
42 -430
43 -440
44 -450
45 -460
46 -470
47 -480
48 -490
49 -500
50 -510
51 -520
52 -530
53 -540
54 -550
55 -560
56 -570
57 -580
58 -590
59 -600
60 -610
61 -620
62 -630
63 -640
64 -650
65 -660
66 -670
67 -680
68 -690
69 -700
70 -710
71 -720
72 -730
73 -740
74 -750
75 -760
76 -770
77 -780
78 -790
79 -800
80 -810
81 -820
82 -830
83 -840
84 -850
85 -860
86 -870
87 -880
88 -890
89 -900
90 -910
91 -920
92 -930
93 -940
94 -950
95 -960
96 -970
97 -980
98 -990
99 -1000
100 -1010
101 -1020
102 -1030
103 -1040
104 -1050
105 -1060
106 -1070
107 -1080
108 -1090
109 -1100
110 -1110
111 -1120
112 -1130
113 -1140
114 -1150
115 -1160
116 -1170
117 -1180
118 -1190
119 -1200
